(set-info :smt-lib-version 2.0)
(set-logic ALL)
; variable declaration
(declare-const L0x7fffffffd9f8_1 (_ BitVec 64))
(declare-const r8_4 (_ BitVec 64))
(declare-const r8_3 (_ BitVec 64))
(declare-const r8_2 (_ BitVec 64))
(declare-const r8_1 (_ BitVec 64))
(declare-const c3_1 (_ BitVec 64))
(declare-const r13_3 (_ BitVec 64))
(declare-const r13_2 (_ BitVec 64))
(declare-const r13_1 (_ BitVec 64))
(declare-const L0x7fffffffd9f0_1 (_ BitVec 64))
(declare-const a2_0 (_ BitVec 64))
(declare-const L0x55555557c008_1 (_ BitVec 64))
(declare-const a0_0 (_ BitVec 64))
(declare-const L0x7fffffffd9e8_1 (_ BitVec 64))
(declare-const rcx_1 (_ BitVec 64))
(declare-const carry_9 (_ BitVec 1))
(declare-const carry_8 (_ BitVec 1))
(declare-const carry_7 (_ BitVec 1))
(declare-const carry_6 (_ BitVec 1))
(declare-const carry_5 (_ BitVec 1))
(declare-const carry_4 (_ BitVec 1))
(declare-const carry_3 (_ BitVec 1))
(declare-const carry_2 (_ BitVec 1))
(declare-const carry_1 (_ BitVec 1))
(declare-const L0x7fffffffd9d0_1 (_ BitVec 64))
(declare-const L0x7fffffffd9e0_1 (_ BitVec 64))
(declare-const r10_4 (_ BitVec 64))
(declare-const r10_3 (_ BitVec 64))
(declare-const r10_2 (_ BitVec 64))
(declare-const r10_1 (_ BitVec 64))
(declare-const L0x55555557c010_1 (_ BitVec 64))
(declare-const L0x7fffffffda18_1 (_ BitVec 64))
(declare-const rdx_1 (_ BitVec 64))
(declare-const L0x7fffffffd9d8_1 (_ BitVec 64))
(declare-const a1_0 (_ BitVec 64))
(declare-const r11_4 (_ BitVec 64))
(declare-const r11_3 (_ BitVec 64))
(declare-const r11_2 (_ BitVec 64))
(declare-const r11_1 (_ BitVec 64))
(declare-const b1_0 (_ BitVec 64))
(declare-const L0x55555557c018_1 (_ BitVec 64))
(declare-const b2_0 (_ BitVec 64))
(declare-const b3_0 (_ BitVec 64))
(declare-const r9_4 (_ BitVec 64))
(declare-const r9_3 (_ BitVec 64))
(declare-const r9_2 (_ BitVec 64))
(declare-const r9_1 (_ BitVec 64))
(declare-const L0x7fffffffd9c0_1 (_ BitVec 64))
(declare-const L0x7fffffffd9c8_1 (_ BitVec 64))
(declare-const r12_1 (_ BitVec 64))
(declare-const b0_0 (_ BitVec 64))
(declare-const c1_1 (_ BitVec 64))
(declare-const L0x7fffffffda00_1 (_ BitVec 64))
(declare-const rax_1 (_ BitVec 64))
(declare-const L0x55555557c000_1 (_ BitVec 64))
(declare-const c2_1 (_ BitVec 64))
(declare-const a3_0 (_ BitVec 64))
(declare-const L0x7fffffffda08_1 (_ BitVec 64))
(declare-const c0_1 (_ BitVec 64))
(declare-const L0x7fffffffda10_1 (_ BitVec 64))
; range precondition and program 
(assert (and (and (and (and (and (= m0_0 #xFFFFFFFFFFFFFFFF) (= m1_0 #x00000000FFFFFFFF)) (= m2_0 #x0000000000000000)) (= m3_0 #xFFFFFFFF00000001)) (bvult (bvadd (bvmul ((_ zero_extend 192) a0_0) #x0000000000000000000000000000000000000000000000000000000000000001) (bvadd (bvmul ((_ zero_extend 192) a1_0) #x0000000000000000000000000000000000000000000000010000000000000000) (bvadd (bvmul ((_ zero_extend 192) a2_0) #x0000000000000000000000000000000100000000000000000000000000000000) (bvmul ((_ zero_extend 192) a3_0) #x0000000000000001000000000000000000000000000000000000000000000000)))) (bvadd (bvmul ((_ zero_extend 192) m0_0) #x0000000000000000000000000000000000000000000000000000000000000001) (bvadd (bvmul ((_ zero_extend 192) m1_0) #x0000000000000000000000000000000000000000000000010000000000000000) (bvadd (bvmul ((_ zero_extend 192) m2_0) #x0000000000000000000000000000000100000000000000000000000000000000) (bvmul ((_ zero_extend 192) m3_0) #x0000000000000001000000000000000000000000000000000000000000000000)))))) (bvult (bvadd (bvmul ((_ zero_extend 192) b0_0) #x0000000000000000000000000000000000000000000000000000000000000001) (bvadd (bvmul ((_ zero_extend 192) b1_0) #x0000000000000000000000000000000000000000000000010000000000000000) (bvadd (bvmul ((_ zero_extend 192) b2_0) #x0000000000000000000000000000000100000000000000000000000000000000) (bvmul ((_ zero_extend 192) b3_0) #x0000000000000001000000000000000000000000000000000000000000000000)))) (bvadd (bvmul ((_ zero_extend 192) m0_0) #x0000000000000000000000000000000000000000000000000000000000000001) (bvadd (bvmul ((_ zero_extend 192) m1_0) #x0000000000000000000000000000000000000000000000010000000000000000) (bvadd (bvmul ((_ zero_extend 192) m2_0) #x0000000000000000000000000000000100000000000000000000000000000000) (bvmul ((_ zero_extend 192) m3_0) #x0000000000000001000000000000000000000000000000000000000000000000)))))))
(assert (= L0x7fffffffd9c0_1 a0_0))
(assert (= L0x7fffffffd9c8_1 a1_0))
(assert (= L0x7fffffffd9d0_1 a2_0))
(assert (= L0x7fffffffd9d8_1 a3_0))
(assert (= L0x7fffffffd9e0_1 b0_0))
(assert (= L0x7fffffffd9e8_1 b1_0))
(assert (= L0x7fffffffd9f0_1 b2_0))
(assert (= L0x7fffffffd9f8_1 b3_0))
(assert (= L0x55555557c000_1 #xFFFFFFFFFFFFFFFF))
(assert (= L0x55555557c008_1 #x00000000FFFFFFFF))
(assert (= L0x55555557c010_1 #x0000000000000000))
(assert (= L0x55555557c018_1 #xFFFFFFFF00000001))
(assert (= r8_1 L0x7fffffffd9c0_1))
(assert (= r13_1 #x0000000000000000))
(assert (= r9_1 L0x7fffffffd9c8_1))
(assert (= r10_1 L0x7fffffffd9d0_1))
(assert (= r11_1 L0x7fffffffd9d8_1))
(assert (and (= carry_1 ((_ extract 64 64) (bvadd ((_ zero_extend 1) r8_1) ((_ zero_extend 1) L0x7fffffffd9e0_1)))) (= r8_2 ((_ extract 63 0) (bvadd ((_ zero_extend 1) r8_1) ((_ zero_extend 1) L0x7fffffffd9e0_1))))))
(assert (and (= carry_2 ((_ extract 64 64) (bvadd (bvadd ((_ zero_extend 1) r9_1) ((_ zero_extend 1) L0x7fffffffd9e8_1)) ((_ zero_extend 64) carry_1)))) (= r9_2 ((_ extract 63 0) (bvadd (bvadd ((_ zero_extend 1) r9_1) ((_ zero_extend 1) L0x7fffffffd9e8_1)) ((_ zero_extend 64) carry_1))))))
(assert (= rax_1 r8_2))
(assert (and (= carry_3 ((_ extract 64 64) (bvadd (bvadd ((_ zero_extend 1) r10_1) ((_ zero_extend 1) L0x7fffffffd9f0_1)) ((_ zero_extend 64) carry_2)))) (= r10_2 ((_ extract 63 0) (bvadd (bvadd ((_ zero_extend 1) r10_1) ((_ zero_extend 1) L0x7fffffffd9f0_1)) ((_ zero_extend 64) carry_2))))))
(assert (and (= carry_4 ((_ extract 64 64) (bvadd (bvadd ((_ zero_extend 1) r11_1) ((_ zero_extend 1) L0x7fffffffd9f8_1)) ((_ zero_extend 64) carry_3)))) (= r11_2 ((_ extract 63 0) (bvadd (bvadd ((_ zero_extend 1) r11_1) ((_ zero_extend 1) L0x7fffffffd9f8_1)) ((_ zero_extend 64) carry_3))))))
(assert (= rdx_1 r9_2))
(assert (= r13_2 (bvadd (bvadd r13_1 #x0000000000000000) ((_ zero_extend 63) carry_4))))
(assert (and (= carry_5 ((_ extract 64 64) (bvsub ((_ zero_extend 1) r8_2) ((_ zero_extend 1) L0x55555557c000_1)))) (= r8_3 ((_ extract 63 0) (bvsub ((_ zero_extend 1) r8_2) ((_ zero_extend 1) L0x55555557c000_1))))))
(assert (= rcx_1 r10_2))
(assert (and (= carry_6 ((_ extract 64 64) (bvsub ((_ zero_extend 1) r9_2) (bvadd ((_ zero_extend 1) L0x55555557c008_1) ((_ zero_extend 64) carry_5))))) (= r9_3 ((_ extract 63 0) (bvsub ((_ zero_extend 1) r9_2) (bvadd ((_ zero_extend 1) L0x55555557c008_1) ((_ zero_extend 64) carry_5)))))))
(assert (and (= carry_7 ((_ extract 64 64) (bvsub ((_ zero_extend 1) r10_2) (bvadd ((_ zero_extend 1) L0x55555557c010_1) ((_ zero_extend 64) carry_6))))) (= r10_3 ((_ extract 63 0) (bvsub ((_ zero_extend 1) r10_2) (bvadd ((_ zero_extend 1) L0x55555557c010_1) ((_ zero_extend 64) carry_6)))))))
(assert (= r12_1 r11_2))
(assert (and (= carry_8 ((_ extract 64 64) (bvsub ((_ zero_extend 1) r11_2) (bvadd ((_ zero_extend 1) L0x55555557c018_1) ((_ zero_extend 64) carry_7))))) (= r11_3 ((_ extract 63 0) (bvsub ((_ zero_extend 1) r11_2) (bvadd ((_ zero_extend 1) L0x55555557c018_1) ((_ zero_extend 64) carry_7)))))))
(assert (and (= carry_9 ((_ extract 64 64) (bvsub ((_ zero_extend 1) r13_2) (bvadd ((_ zero_extend 1) #x0000000000000000) ((_ zero_extend 64) carry_8))))) (= r13_3 ((_ extract 63 0) (bvsub ((_ zero_extend 1) r13_2) (bvadd ((_ zero_extend 1) #x0000000000000000) ((_ zero_extend 64) carry_8)))))))
(assert (= r8_4 (ite (= carry_9 #b1) rax_1 r8_3)))
(assert (= r9_4 (ite (= carry_9 #b1) rdx_1 r9_3)))
(assert (= L0x7fffffffda00_1 r8_4))
(assert (= r10_4 (ite (= carry_9 #b1) rcx_1 r10_3)))
(assert (= L0x7fffffffda08_1 r9_4))
(assert (= r11_4 (ite (= carry_9 #b1) r12_1 r11_3)))
(assert (= L0x7fffffffda10_1 r10_4))
(assert (= L0x7fffffffda18_1 r11_4))
(assert (= c0_1 L0x7fffffffda00_1))
(assert (= c1_1 L0x7fffffffda08_1))
(assert (= c2_1 L0x7fffffffda10_1))
(assert (= c3_1 L0x7fffffffda18_1))
; algebraic precondition and program
(assert true)
(assert (eqP (PConst (bv2nat L0x7fffffffd9c0_1)) (PConst (bv2nat a0_0))))
(assert (eqP (PConst (bv2nat L0x7fffffffd9c8_1)) (PConst (bv2nat a1_0))))
(assert (eqP (PConst (bv2nat L0x7fffffffd9d0_1)) (PConst (bv2nat a2_0))))
(assert (eqP (PConst (bv2nat L0x7fffffffd9d8_1)) (PConst (bv2nat a3_0))))
(assert (eqP (PConst (bv2nat L0x7fffffffd9e0_1)) (PConst (bv2nat b0_0))))
(assert (eqP (PConst (bv2nat L0x7fffffffd9e8_1)) (PConst (bv2nat b1_0))))
(assert (eqP (PConst (bv2nat L0x7fffffffd9f0_1)) (PConst (bv2nat b2_0))))
(assert (eqP (PConst (bv2nat L0x7fffffffd9f8_1)) (PConst (bv2nat b3_0))))
(assert (eqP (PConst (bv2nat L0x55555557c000_1)) (PConst 18446744073709551615)))
(assert (eqP (PConst (bv2nat L0x55555557c008_1)) (PConst 4294967295)))
(assert (eqP (PConst (bv2nat L0x55555557c010_1)) (PConst 0)))
(assert (eqP (PConst (bv2nat L0x55555557c018_1)) (PConst 18446744069414584321)))
(assert (eqP (PConst (bv2nat r8_1)) (PConst (bv2nat L0x7fffffffd9c0_1))))
(assert (eqP (PConst (bv2nat r13_1)) (PConst 0)))
(assert (eqP (PConst (bv2nat r9_1)) (PConst (bv2nat L0x7fffffffd9c8_1))))
(assert (eqP (PConst (bv2nat r10_1)) (PConst (bv2nat L0x7fffffffd9d0_1))))
(assert (eqP (PConst (bv2nat r11_1)) (PConst (bv2nat L0x7fffffffd9d8_1))))
(assert (eqP (PAdd (PConst (bv2nat r8_2)) (PMul (PConst (bv2nat carry_1)) (PConst 18446744073709551616))) (PAdd (PConst (bv2nat r8_1)) (PConst (bv2nat L0x7fffffffd9e0_1)))))
(assert (eqP (PAdd (PConst (bv2nat r9_2)) (PMul (PConst (bv2nat carry_2)) (PConst 18446744073709551616))) (PAdd (PAdd (PConst (bv2nat r9_1)) (PConst (bv2nat L0x7fffffffd9e8_1))) (PConst (bv2nat carry_1)))))
(assert (eqP (PConst (bv2nat rax_1)) (PConst (bv2nat r8_2))))
(assert (eqP (PAdd (PConst (bv2nat r10_2)) (PMul (PConst (bv2nat carry_3)) (PConst 18446744073709551616))) (PAdd (PAdd (PConst (bv2nat r10_1)) (PConst (bv2nat L0x7fffffffd9f0_1))) (PConst (bv2nat carry_2)))))
(assert (eqP (PAdd (PConst (bv2nat r11_2)) (PMul (PConst (bv2nat carry_4)) (PConst 18446744073709551616))) (PAdd (PAdd (PConst (bv2nat r11_1)) (PConst (bv2nat L0x7fffffffd9f8_1))) (PConst (bv2nat carry_3)))))
(assert (eqP (PConst (bv2nat rdx_1)) (PConst (bv2nat r9_2))))
(assert (eqP (PConst (bv2nat r13_2)) (PAdd (PAdd (PConst (bv2nat r13_1)) (PConst 0)) (PConst (bv2nat carry_4)))))
(assert (eqP (PAdd (PSub (PConst (bv2nat r8_2)) (PConst (bv2nat L0x55555557c000_1))) (PMul (PConst (bv2nat carry_5)) (PConst 18446744073709551616))) (PConst (bv2nat r8_3))))
(assert (eqP (PConst (bv2nat rcx_1)) (PConst (bv2nat r10_2))))
(assert (eqP (PAdd (PConst (bv2nat r9_3)) (PMul (PNeg (PConst (bv2nat carry_6))) (PConst 18446744073709551616))) (PSub (PSub (PConst (bv2nat r9_2)) (PConst (bv2nat L0x55555557c008_1))) (PConst (bv2nat carry_5)))))
(assert (eqP (PAdd (PConst (bv2nat r10_3)) (PMul (PNeg (PConst (bv2nat carry_7))) (PConst 18446744073709551616))) (PSub (PSub (PConst (bv2nat r10_2)) (PConst (bv2nat L0x55555557c010_1))) (PConst (bv2nat carry_6)))))
(assert (eqP (PConst (bv2nat r12_1)) (PConst (bv2nat r11_2))))
(assert (eqP (PAdd (PConst (bv2nat r11_3)) (PMul (PNeg (PConst (bv2nat carry_8))) (PConst 18446744073709551616))) (PSub (PSub (PConst (bv2nat r11_2)) (PConst (bv2nat L0x55555557c018_1))) (PConst (bv2nat carry_7)))))
(assert (eqP (PAdd (PConst (bv2nat r13_3)) (PMul (PNeg (PConst (bv2nat carry_9))) (PConst 18446744073709551616))) (PSub (PSub (PConst (bv2nat r13_2)) (PConst 0)) (PConst (bv2nat carry_8)))))
(assert (eqP (PConst (bv2nat r8_4)) (PAdd (PMul (PConst (bv2nat carry_9)) (PConst (bv2nat rax_1))) (PMul (PSub (PConst 1) (PConst (bv2nat carry_9))) (PConst (bv2nat r8_3))))))
(assert (eqP (PConst (bv2nat r9_4)) (PAdd (PMul (PConst (bv2nat carry_9)) (PConst (bv2nat rdx_1))) (PMul (PSub (PConst 1) (PConst (bv2nat carry_9))) (PConst (bv2nat r9_3))))))
(assert (eqP (PConst (bv2nat L0x7fffffffda00_1)) (PConst (bv2nat r8_4))))
(assert (eqP (PConst (bv2nat r10_4)) (PAdd (PMul (PConst (bv2nat carry_9)) (PConst (bv2nat rcx_1))) (PMul (PSub (PConst 1) (PConst (bv2nat carry_9))) (PConst (bv2nat r10_3))))))
(assert (eqP (PConst (bv2nat L0x7fffffffda08_1)) (PConst (bv2nat r9_4))))
(assert (eqP (PConst (bv2nat r11_4)) (PAdd (PMul (PConst (bv2nat carry_9)) (PConst (bv2nat r12_1))) (PMul (PSub (PConst 1) (PConst (bv2nat carry_9))) (PConst (bv2nat r11_3))))))
(assert (eqP (PConst (bv2nat L0x7fffffffda10_1)) (PConst (bv2nat r10_4))))
(assert (eqP (PConst (bv2nat L0x7fffffffda18_1)) (PConst (bv2nat r11_4))))
(assert (eqP (PConst (bv2nat c0_1)) (PConst (bv2nat L0x7fffffffda00_1))))
(assert (eqP (PConst (bv2nat c1_1)) (PConst (bv2nat L0x7fffffffda08_1))))
(assert (eqP (PConst (bv2nat c2_1)) (PConst (bv2nat L0x7fffffffda10_1))))
(assert (eqP (PConst (bv2nat c3_1)) (PConst (bv2nat L0x7fffffffda18_1))))
; postcondition
(assert (not (and (and (= (bvsmod (bvsub ((_ zero_extend 1) (bvadd (bvmul ((_ zero_extend 256) c0_1) #x00000000000000000000000000000000000000000000000000000000000000000000000000000001) (bvadd (bvmul ((_ zero_extend 256) c1_1) #x00000000000000000000000000000000000000000000000000000000000000010000000000000000) (bvadd (bvmul ((_ zero_extend 256) c2_1) #x00000000000000000000000000000000000000000000000100000000000000000000000000000000) (bvadd (bvmul ((_ zero_extend 256) c3_1) #x00000000000000000000000000000001000000000000000000000000000000000000000000000000) (bvmul ((_ zero_extend 256) #x0000000000000000) #x00000000000000010000000000000000000000000000000000000000000000000000000000000000)))))) ((_ zero_extend 1) (bvadd (bvadd (bvmul ((_ zero_extend 256) a0_0) #x00000000000000000000000000000000000000000000000000000000000000000000000000000001) (bvadd (bvmul ((_ zero_extend 256) a1_0) #x00000000000000000000000000000000000000000000000000000000000000010000000000000000) (bvadd (bvmul ((_ zero_extend 256) a2_0) #x00000000000000000000000000000000000000000000000100000000000000000000000000000000) (bvadd (bvmul ((_ zero_extend 256) a3_0) #x00000000000000000000000000000001000000000000000000000000000000000000000000000000) (bvmul ((_ zero_extend 256) #x0000000000000000) #x00000000000000010000000000000000000000000000000000000000000000000000000000000000))))) (bvadd (bvmul ((_ zero_extend 256) b0_0) #x00000000000000000000000000000000000000000000000000000000000000000000000000000001) (bvadd (bvmul ((_ zero_extend 256) b1_0) #x00000000000000000000000000000000000000000000000000000000000000010000000000000000) (bvadd (bvmul ((_ zero_extend 256) b2_0) #x00000000000000000000000000000000000000000000000100000000000000000000000000000000) (bvadd (bvmul ((_ zero_extend 256) b3_0) #x00000000000000000000000000000001000000000000000000000000000000000000000000000000) (bvmul ((_ zero_extend 256) #x0000000000000000) #x00000000000000010000000000000000000000000000000000000000000000000000000000000000)))))))) ((_ zero_extend 1) (bvadd (bvmul ((_ zero_extend 256) m0_0) #x00000000000000000000000000000000000000000000000000000000000000000000000000000001) (bvadd (bvmul ((_ zero_extend 256) m1_0) #x00000000000000000000000000000000000000000000000000000000000000010000000000000000) (bvadd (bvmul ((_ zero_extend 256) m2_0) #x00000000000000000000000000000000000000000000000100000000000000000000000000000000) (bvadd (bvmul ((_ zero_extend 256) m3_0) #x00000000000000000000000000000001000000000000000000000000000000000000000000000000) (bvmul ((_ zero_extend 256) #x0000000000000000) #x00000000000000010000000000000000000000000000000000000000000000000000000000000000))))))) #b000000000000000000000000000000000000000000000000000000000000000000000000000000000000000000000000000000000000000000000000000000000000000000000000000000000000000000000000000000000000000000000000000000000000000000000000000000000000000000000000000000000000000000000000000000000000000000000000000000000000000000000000000000000) (bvult (bvadd (bvmul ((_ zero_extend 192) c0_1) #x0000000000000000000000000000000000000000000000000000000000000001) (bvadd (bvmul ((_ zero_extend 192) c1_1) #x0000000000000000000000000000000000000000000000010000000000000000) (bvadd (bvmul ((_ zero_extend 192) c2_1) #x0000000000000000000000000000000100000000000000000000000000000000) (bvmul ((_ zero_extend 192) c3_1) #x0000000000000001000000000000000000000000000000000000000000000000)))) (bvadd (bvmul ((_ zero_extend 192) m0_0) #x0000000000000000000000000000000000000000000000000000000000000001) (bvadd (bvmul ((_ zero_extend 192) m1_0) #x0000000000000000000000000000000000000000000000010000000000000000) (bvadd (bvmul ((_ zero_extend 192) m2_0) #x0000000000000000000000000000000100000000000000000000000000000000) (bvmul ((_ zero_extend 192) m3_0) #x0000000000000001000000000000000000000000000000000000000000000000)))))) true)))
; check
(check-sat)
(exit)
